rcpsp/heur_output_or_constraints/Log=10/heurj60.txt
encoding rcpsp/j60.sm/j6013_7.sm nv: 1017920 nc: 2077750 enctime: 16.42
encoding rcpsp/j60.sm/j6013_7.sm nv: 308557 nc: 628250 enctime: 3.80
c File: j6013_7.smnaiveor10.wcnf
c timeout
c final solution cost: 94
c CPU time: 62.076569
s UNKNOWN

c File: j6013_7.smor10.wcnf
c timeout
c final solution cost: 92
c CPU time: 60.569549
s UNKNOWN


rcpsp/heur_output_or_constraints/Log=10/heurj60.txt
encoding rcpsp/j60.sm/j6013_8.sm nv: 912870 nc: 1885995 enctime: 15.51
encoding rcpsp/j60.sm/j6013_8.sm nv: 359856 nc: 741929 enctime: 4.43
c File: j6013_8.smnaiveor10.wcnf
c timeout
c final solution cost: 123
c CPU time: 62.000144
s UNKNOWN

c File: j6013_8.smor10.wcnf
c timeout
c final solution cost: 123
c CPU time: 60.686444
s UNKNOWN


rcpsp/heur_output_or_constraints/Log=10/heurj60.txt
encoding rcpsp/j60.sm/j6013_9.sm nv: 1068200 nc: 2192461 enctime: 17.43
encoding rcpsp/j60.sm/j6013_9.sm nv: 363188 nc: 743629 enctime: 5.11
c File: j6013_9.smnaiveor10.wcnf
c timeout
c final solution cost: 105
c CPU time: 62.335705
s UNKNOWN

c File: j6013_9.smor10.wcnf
c timeout
c final solution cost: 103
c CPU time: 60.664907
s UNKNOWN


rcpsp/heur_output_or_constraints/Log=10/heurj60.txt
encoding rcpsp/j60.sm/j601_3.sm nv: 117607 nc: 294518 enctime: 3.67
encoding rcpsp/j60.sm/j601_3.sm nv: 26712 nc: 65198 enctime: 0.50
c File: j601_3.smnaiveor10.wcnf
c optimal
c final solution cost: 68
c CPU time: 0.978328
s OPTIMUM FOUND

c File: j601_3.smor10.wcnf
c optimal
c final solution cost: 68
c CPU time: 0.102437
s OPTIMUM FOUND


rcpsp/heur_output_or_constraints/Log=10/heurj60.txt
encoding rcpsp/j60.sm/j6014_10.sm nv: 1792296 nc: 3636024 enctime: 29.10
encoding rcpsp/j60.sm/j6014_10.sm nv: 375804 nc: 760116 enctime: 4.88
c File: j6014_10.smnaiveor10.wcnf
c timeout
c final solution cost: 72
c CPU time: 63.373222
s UNKNOWN

c File: j6014_10.smor10.wcnf
c timeout
c final solution cost: 70
c CPU time: 60.613162
s UNKNOWN


rcpsp/heur_output_or_constraints/Log=10/heurj60.txt
encoding rcpsp/j60.sm/j6014_1.sm nv: 1890108 nc: 3804958 enctime: 28.80
encoding rcpsp/j60.sm/j6014_1.sm nv: 363264 nc: 729212 enctime: 5.66
c File: j6014_1.smnaiveor10.wcnf
c timeout
c final solution cost: 57
c CPU time: 63.314714
s UNKNOWN

c File: j6014_1.smor10.wcnf
c timeout
c final solution cost: 58
c CPU time: 60.568168
s UNKNOWN


rcpsp/heur_output_or_constraints/Log=10/heurj60.txt
encoding rcpsp/j60.sm/j6014_2.sm nv: 1766688 nc: 3561100 enctime: 27.41
encoding rcpsp/j60.sm/j6014_2.sm nv: 336512 nc: 676268 enctime: 4.33
c File: j6014_2.smnaiveor10.wcnf
c timeout
c final solution cost: 60
c CPU time: 63.171270
s UNKNOWN

c File: j6014_2.smor10.wcnf
c timeout
c final solution cost: 60
c CPU time: 60.547559
s UNKNOWN


rcpsp/heur_output_or_constraints/Log=10/heurj60.txt
encoding rcpsp/j60.sm/j6014_3.sm nv: 1549664 nc: 3122069 enctime: 23.75
encoding rcpsp/j60.sm/j6014_3.sm nv: 328568 nc: 660206 enctime: 4.21
c File: j6014_3.smnaiveor10.wcnf
c optimal
c final solution cost: 61
c CPU time: 19.746460
s OPTIMUM FOUND

c File: j6014_3.smor10.wcnf
c optimal
c final solution cost: 61
c CPU time: 4.275452
s OPTIMUM FOUND


rcpsp/heur_output_or_constraints/Log=10/heurj60.txt
encoding rcpsp/j60.sm/j6014_4.sm nv: 1708927 nc: 3453128 enctime: 26.88
encoding rcpsp/j60.sm/j6014_4.sm nv: 354970 nc: 715310 enctime: 4.58
c File: j6014_4.smnaiveor10.wcnf
c timeout
c CPU time: 62.782063
s UNKNOWN

c File: j6014_4.smor10.wcnf
c timeout
c final solution cost: 64
c CPU time: 60.575419
s UNKNOWN


rcpsp/heur_output_or_constraints/Log=10/heurj60.txt
encoding rcpsp/j60.sm/j6014_5.sm nv: 1606629 nc: 3231094 enctime: 25.20
encoding rcpsp/j60.sm/j6014_5.sm nv: 307980 nc: 617604 enctime: 4.03
c File: j6014_5.smnaiveor10.wcnf
c optimal
c final solution cost: 56
c CPU time: 21.464199
s OPTIMUM FOUND

c File: j6014_5.smor10.wcnf
c optimal
c final solution cost: 56
c CPU time: 14.565159
s OPTIMUM FOUND


rcpsp/heur_output_or_constraints/Log=10/heurj60.txt
encoding rcpsp/j60.sm/j6014_6.sm nv: 1610280 nc: 3242561 enctime: 24.53
encoding rcpsp/j60.sm/j6014_6.sm nv: 347616 nc: 698214 enctime: 5.25
c File: j6014_6.smnaiveor10.wcnf
c optimal
c final solution cost: 65
c CPU time: 12.845275
s OPTIMUM FOUND

c File: j6014_6.smor10.wcnf
c optimal
c final solution cost: 65
c CPU time: 1.567777
s OPTIMUM FOUND


rcpsp/heur_output_or_constraints/Log=10/heurj60.txt
encoding rcpsp/j60.sm/j6014_7.sm nv: 1460552 nc: 2948254 enctime: 22.57
encoding rcpsp/j60.sm/j6014_7.sm nv: 328162 nc: 660689 enctime: 4.19
c File: j6014_7.smnaiveor10.wcnf
c optimal
c final solution cost: 69
c CPU time: 4.535562
s OPTIMUM FOUND

c File: j6014_7.smor10.wcnf
c optimal
c final solution cost: 69
c CPU time: 1.190584
s OPTIMUM FOUND


rcpsp/heur_output_or_constraints/Log=10/heurj60.txt
encoding rcpsp/j60.sm/j6014_8.sm nv: 1281312 nc: 2583983 enctime: 19.89
encoding rcpsp/j60.sm/j6014_8.sm nv: 369267 nc: 743288 enctime: 4.52
c File: j6014_8.smnaiveor10.wcnf
c optimal
c final solution cost: 78
c CPU time: 4.022346
s OPTIMUM FOUND

c File: j6014_8.smor10.wcnf
c optimal
c final solution cost: 78
c CPU time: 1.134298
s OPTIMUM FOUND


rcpsp/heur_output_or_constraints/Log=10/heurj60.txt
encoding rcpsp/j60.sm/j6014_9.sm nv: 1557051 nc: 3134575 enctime: 24.01
encoding rcpsp/j60.sm/j6014_9.sm nv: 312418 nc: 627278 enctime: 4.06
c File: j6014_9.smnaiveor10.wcnf
c optimal
c final solution cost: 59
c CPU time: 12.330610
s OPTIMUM FOUND

c File: j6014_9.smor10.wcnf
c optimal
c final solution cost: 59
c CPU time: 1.432789
s OPTIMUM FOUND


rcpsp/heur_output_or_constraints/Log=10/heurj60.txt
encoding rcpsp/j60.sm/j601_4.sm nv: 124150 nc: 310677 enctime: 3.83
encoding rcpsp/j60.sm/j601_4.sm nv: 31324 nc: 76668 enctime: 0.57
c File: j601_4.smnaiveor10.wcnf
c optimal
c final solution cost: 68
c CPU time: 2.567238
s OPTIMUM FOUND

c File: j601_4.smor10.wcnf
c optimal
c final solution cost: 68
c CPU time: 0.288169
s OPTIMUM FOUND


rcpsp/heur_output_or_constraints/Log=10/heurj60.txt
encoding rcpsp/j60.sm/j6015_10.sm nv: 2039275 nc: 4082217 enctime: 30.88
encoding rcpsp/j60.sm/j6015_10.sm nv: 365850 nc: 730674 enctime: 4.84
c File: j6015_10.smnaiveor10.wcnf
c optimal
c final solution cost: 53
c CPU time: 4.649391
s OPTIMUM FOUND

c File: j6015_10.smor10.wcnf
c optimal
c final solution cost: 53
c CPU time: 0.695579
s OPTIMUM FOUND


rcpsp/heur_output_or_constraints/Log=10/heurj60.txt
encoding rcpsp/j60.sm/j6015_1.sm nv: 2067620 nc: 4157939 enctime: 31.61
encoding rcpsp/j60.sm/j6015_1.sm nv: 524620 nc: 1053189 enctime: 7.66
c File: j6015_1.smnaiveor10.wcnf
c optimal
c final solution cost: 84
c CPU time: 5.922306
s OPTIMUM FOUND

c File: j6015_1.smor10.wcnf
c optimal
c final solution cost: 84
c CPU time: 1.113076
s OPTIMUM FOUND


rcpsp/heur_output_or_constraints/Log=10/heurj60.txt
encoding rcpsp/j60.sm/j6015_2.sm nv: 1727200 nc: 3487854 enctime: 27.38
encoding rcpsp/j60.sm/j6015_2.sm nv: 381000 nc: 767364 enctime: 4.85
c File: j6015_2.smnaiveor10.wcnf
c optimal
c final solution cost: 70
c CPU time: 13.522029
s OPTIMUM FOUND

c File: j6015_2.smor10.wcnf
c optimal
c final solution cost: 70
c CPU time: 1.278206
s OPTIMUM FOUND


rcpsp/heur_output_or_constraints/Log=10/heurj60.txt
encoding rcpsp/j60.sm/j6015_3.sm nv: 2432304 nc: 4877844 enctime: 36.94
encoding rcpsp/j60.sm/j6015_3.sm nv: 519176 nc: 1039214 enctime: 6.62
c File: j6015_3.smnaiveor10.wcnf
c optimal
c final solution cost: 72
c CPU time: 5.774941
s OPTIMUM FOUND

c File: j6015_3.smor10.wcnf
c optimal
c final solution cost: 72
c CPU time: 1.045040
s OPTIMUM FOUND


rcpsp/heur_output_or_constraints/Log=10/heurj60.txt
encoding rcpsp/j60.sm/j6015_4.sm nv: 2218194 nc: 4470602 enctime: 34.63
encoding rcpsp/j60.sm/j6015_4.sm nv: 397377 nc: 798575 enctime: 6.37
c File: j6015_4.smnaiveor10.wcnf
c optimal
c final solution cost: 64
c CPU time: 6.836435
s OPTIMUM FOUND

c File: j6015_4.smor10.wcnf
c optimal
c final solution cost: 64
c CPU time: 1.135321
s OPTIMUM FOUND


rcpsp/heur_output_or_constraints/Log=10/heurj60.txt
encoding rcpsp/j60.sm/j6015_5.sm nv: 2133460 nc: 4291505 enctime: 32.37
encoding rcpsp/j60.sm/j6015_5.sm nv: 410520 nc: 823742 enctime: 6.48
c File: j6015_5.smnaiveor10.wcnf
c optimal
c final solution cost: 64
c CPU time: 6.234315
s OPTIMUM FOUND

c File: j6015_5.smor10.wcnf
c optimal
c final solution cost: 64
c CPU time: 1.176379
s OPTIMUM FOUND


rcpsp/heur_output_or_constraints/Log=10/heurj60.txt
encoding rcpsp/j60.sm/j6015_6.sm nv: 1857708 nc: 3739022 enctime: 28.45
encoding rcpsp/j60.sm/j6015_6.sm nv: 411588 nc: 826502 enctime: 6.19
c File: j6015_6.smnaiveor10.wcnf
c optimal
c final solution cost: 73
c CPU time: 4.425697
s OPTIMUM FOUND

c File: j6015_6.smor10.wcnf
c optimal
c final solution cost: 73
c CPU time: 0.775451
s OPTIMUM FOUND


rcpsp/heur_output_or_constraints/Log=10/heurj60.txt
encoding rcpsp/j60.sm/j6015_7.sm nv: 2288234 nc: 4584445 enctime: 34.97
encoding rcpsp/j60.sm/j6015_7.sm nv: 424762 nc: 849069 enctime: 5.61
c File: j6015_7.smnaiveor10.wcnf
c optimal
c final solution cost: 61
c CPU time: 6.524748
s OPTIMUM FOUND

c File: j6015_7.smor10.wcnf
c optimal
c final solution cost: 61
c CPU time: 0.869029
s OPTIMUM FOUND


rcpsp/heur_output_or_constraints/Log=10/heurj60.txt
encoding rcpsp/j60.sm/j6015_8.sm nv: 2220508 nc: 4474191 enctime: 35.05
encoding rcpsp/j60.sm/j6015_8.sm nv: 490720 nc: 986697 enctime: 6.30
c File: j6015_8.smnaiveor10.wcnf
c optimal
c final solution cost: 79
c CPU time: 6.719142
s OPTIMUM FOUND

c File: j6015_8.smor10.wcnf
c optimal
c final solution cost: 79
c CPU time: 1.023101
s OPTIMUM FOUND


rcpsp/heur_output_or_constraints/Log=10/heurj60.txt
encoding rcpsp/j60.sm/j6015_9.sm nv: 3013429 nc: 6031841 enctime: 47.00
encoding rcpsp/j60.sm/j6015_9.sm nv: 580423 nc: 1159403 enctime: 7.74
c File: j6015_9.smnaiveor10.wcnf
c optimal
c final solution cost: 72
c CPU time: 7.529951
s OPTIMUM FOUND

c File: j6015_9.smor10.wcnf
c optimal
c final solution cost: 72
c CPU time: 1.149507
s OPTIMUM FOUND


rcpsp/heur_output_or_constraints/Log=10/heurj60.txt
encoding rcpsp/j60.sm/j601_5.sm nv: 118656 nc: 291667 enctime: 3.49
encoding rcpsp/j60.sm/j601_5.sm nv: 31104 nc: 74839 enctime: 0.55
c File: j601_5.smnaiveor10.wcnf
c optimal
c final solution cost: 71
c CPU time: 6.945932
s OPTIMUM FOUND

c File: j601_5.smor10.wcnf
c optimal
c final solution cost: 71
c CPU time: 0.188137
s OPTIMUM FOUND


rcpsp/heur_output_or_constraints/Log=10/heurj60.txt
encoding rcpsp/j60.sm/j6016_10.sm nv: 2712843 nc: 5433060 enctime: 41.42
encoding rcpsp/j60.sm/j6016_10.sm nv: 539529 nc: 1078424 enctime: 7.01
c File: j6016_10.smnaiveor10.wcnf
c optimal
c final solution cost: 68
c CPU time: 6.348940
s OPTIMUM FOUND

c File: j6016_10.smor10.wcnf
c optimal
c final solution cost: 68
c CPU time: 1.168204
s OPTIMUM FOUND


rcpsp/heur_output_or_constraints/Log=10/heurj60.txt
encoding rcpsp/j60.sm/j6016_1.sm nv: 3239832 nc: 6483842 enctime: 48.87
encoding rcpsp/j60.sm/j6016_1.sm nv: 566528 nc: 1131496 enctime: 7.51
c File: j6016_1.smnaiveor10.wcnf
c optimal
c final solution cost: 63
c CPU time: 7.346235
s OPTIMUM FOUND

c File: j6016_1.smor10.wcnf
c optimal
c final solution cost: 63
c CPU time: 1.074032
s OPTIMUM FOUND


rcpsp/heur_output_or_constraints/Log=10/heurj60.txt
encoding rcpsp/j60.sm/j6016_2.sm nv: 3284064 nc: 6548266 enctime: 48.29
encoding rcpsp/j60.sm/j6016_2.sm nv: 566892 nc: 1128378 enctime: 7.46
c File: j6016_2.smnaiveor10.wcnf
c optimal
c final solution cost: 57
c CPU time: 7.151438
s OPTIMUM FOUND

c File: j6016_2.smor10.wcnf
c optimal
c final solution cost: 57
c CPU time: 1.033352
s OPTIMUM FOUND


rcpsp/heur_output_or_constraints/Log=10/heurj60.txt
encoding rcpsp/j60.sm/j6016_3.sm nv: 2856396 nc: 5691696 enctime: 41.77
encoding rcpsp/j60.sm/j6016_3.sm nv: 489932 nc: 974384 enctime: 6.47
c File: j6016_3.smnaiveor10.wcnf
c optimal
c final solution cost: 52
c CPU time: 6.316590
s OPTIMUM FOUND

c File: j6016_3.smor10.wcnf
c optimal
c final solution cost: 52
c CPU time: 0.850629
s OPTIMUM FOUND


rcpsp/heur_output_or_constraints/Log=10/heurj60.txt
encoding rcpsp/j60.sm/j6016_4.sm nv: 2570356 nc: 5132819 enctime: 38.82
encoding rcpsp/j60.sm/j6016_4.sm nv: 476296 nc: 949289 enctime: 6.30
c File: j6016_4.smnaiveor10.wcnf
c optimal
c final solution cost: 57
c CPU time: 5.795509
s OPTIMUM FOUND

c File: j6016_4.smor10.wcnf
c optimal
c final solution cost: 57
c CPU time: 0.842574
s OPTIMUM FOUND


rcpsp/heur_output_or_constraints/Log=10/heurj60.txt
encoding rcpsp/j60.sm/j6016_5.sm nv: 2998710 nc: 5980500 enctime: 45.04
encoding rcpsp/j60.sm/j6016_5.sm nv: 581568 nc: 1157920 enctime: 7.63
c File: j6016_5.smnaiveor10.wcnf
c optimal
c final solution cost: 63
c CPU time: 6.662974
s OPTIMUM FOUND

c File: j6016_5.smor10.wcnf
c optimal
c final solution cost: 63
c CPU time: 1.083494
s OPTIMUM FOUND


rcpsp/heur_output_or_constraints/Log=10/heurj60.txt
encoding rcpsp/j60.sm/j6016_6.sm nv: 2978536 nc: 5961907 enctime: 45.59
encoding rcpsp/j60.sm/j6016_6.sm nv: 518364 nc: 1035284 enctime: 6.99
c File: j6016_6.smnaiveor10.wcnf
c optimal
c final solution cost: 62
c CPU time: 7.074060
s OPTIMUM FOUND

c File: j6016_6.smor10.wcnf
c optimal
c final solution cost: 62
c CPU time: 1.027371
s OPTIMUM FOUND


rcpsp/heur_output_or_constraints/Log=10/heurj60.txt
encoding rcpsp/j60.sm/j6016_7.sm nv: 1893492 nc: 3794519 enctime: 28.77
encoding rcpsp/j60.sm/j6016_7.sm nv: 508320 nc: 1017199 enctime: 6.31
c File: j6016_7.smnaiveor10.wcnf
c optimal
c final solution cost: 79
c CPU time: 4.276143
s OPTIMUM FOUND

c File: j6016_7.smor10.wcnf
c optimal
c final solution cost: 79
c CPU time: 0.908215
s OPTIMUM FOUND


rcpsp/heur_output_or_constraints/Log=10/heurj60.txt
encoding rcpsp/j60.sm/j6016_8.sm nv: 2924757 nc: 5846350 enctime: 44.44
encoding rcpsp/j60.sm/j6016_8.sm nv: 548928 nc: 1095246 enctime: 7.24
c File: j6016_8.smnaiveor10.wcnf
c optimal
c final solution cost: 63
c CPU time: 6.589499
s OPTIMUM FOUND

c File: j6016_8.smor10.wcnf
c optimal
c final solution cost: 63
c CPU time: 1.032640
s OPTIMUM FOUND


rcpsp/heur_output_or_constraints/Log=10/heurj60.txt
encoding rcpsp/j60.sm/j6016_9.sm nv: 2741508 nc: 5465940 enctime: 40.83
encoding rcpsp/j60.sm/j6016_9.sm nv: 468270 nc: 931746 enctime: 6.21
c File: j6016_9.smnaiveor10.wcnf
c optimal
c final solution cost: 54
c CPU time: 6.119599
s OPTIMUM FOUND

c File: j6016_9.smor10.wcnf
c optimal
c final solution cost: 54
c CPU time: 0.833990
s OPTIMUM FOUND


rcpsp/heur_output_or_constraints/Log=10/heurj60.txt
encoding rcpsp/j60.sm/j601_6.sm nv: 107811 nc: 264079 enctime: 3.08
encoding rcpsp/j60.sm/j601_6.sm nv: 24684 nc: 58895 enctime: 0.43
c File: j601_6.smnaiveor10.wcnf
c optimal
c final solution cost: 66
c CPU time: 1.864211
s OPTIMUM FOUND

c File: j601_6.smor10.wcnf
c optimal
c final solution cost: 66
c CPU time: 0.164120
s OPTIMUM FOUND


rcpsp/heur_output_or_constraints/Log=10/heurj60.txt
encoding rcpsp/j60.sm/j6017_10.sm nv: 150745 nc: 391288 enctime: 5.32
encoding rcpsp/j60.sm/j6017_10.sm nv: 33866 nc: 85648 enctime: 0.66
c File: j6017_10.smnaiveor10.wcnf
c optimal
c final solution cost: 70
c CPU time: 1.771002
s OPTIMUM FOUND

c File: j6017_10.smor10.wcnf
c optimal
c final solution cost: 70
c CPU time: 0.232665
s OPTIMUM FOUND


rcpsp/heur_output_or_constraints/Log=10/heurj60.txt
encoding rcpsp/j60.sm/j6017_1.sm nv: 113982 nc: 290089 enctime: 3.84
encoding rcpsp/j60.sm/j6017_1.sm nv: 30129 nc: 75028 enctime: 0.38
c File: j6017_1.smnaiveor10.wcnf
c optimal
c final solution cost: 80
c CPU time: 1.640797
s OPTIMUM FOUND

c File: j6017_1.smor10.wcnf
c optimal
c final solution cost: 80
c CPU time: 0.141691
s OPTIMUM FOUND


rcpsp/heur_output_or_constraints/Log=10/heurj60.txt
encoding rcpsp/j60.sm/j6017_2.sm nv: 114138 nc: 287983 enctime: 3.70
encoding rcpsp/j60.sm/j6017_2.sm nv: 28348 nc: 69943 enctime: 0.34
c File: j6017_2.smnaiveor10.wcnf
c optimal
c final solution cost: 64
c CPU time: 1.563279
s OPTIMUM FOUND

c File: j6017_2.smor10.wcnf
c optimal
c final solution cost: 64
c CPU time: 0.231612
s OPTIMUM FOUND


